(set-logic QF_NRA)
(set-info :source |Benchmarks generated from hycomp (https://es-static.fbk.eu/tools/hycomp/). BMC instances of non-linear hybrid automata taken from: Alessandro Cimatti, Sergio Mover, Stefano Tonetta, A quantifier-free SMT encoding of non-linear hybrid automata, FMCAD 2012 and Alessandro Cimatti, Sergio Mover, Stefano Tonetta, Quantier-free encoding of invariants for Hybrid Systems, Formal Methods in System Design. This instance solves a BMC problem of depth 3 and uses the encoding obtained with quantifier elimination using redlog encoding. Contacts: Sergio Mover (mover@fbk.eu), Stefano Tonetta (tonettas@fbk.eu), Alessandro Cimatti (cimatti@fbk.eu).|)
(set-info :smt-lib-version 2.0)
(set-info :category "industrial")
(set-info :status unsat)
;; MathSAT API call trace
;; generated on Mon Mar 19 10:43:53 2012
(declare-fun b.event_is_timed__AT1 () Bool)
(declare-fun b.counter.0__AT1 () Bool)
(declare-fun b.event_is_timed__AT3 () Bool)
(declare-fun b.speed_x__AT0 () Real)
(declare-fun b.y__AT3 () Real)
(declare-fun b.event_is_timed__AT2 () Bool)
(declare-fun b.counter.1__AT1 () Bool)
(declare-fun b.time__AT0 () Real)
(declare-fun b.counter.0__AT3 () Bool)
(declare-fun b.counter.2__AT0 () Bool)
(declare-fun b.counter.2__AT1 () Bool)
(declare-fun b.counter.1__AT3 () Bool)
(declare-fun b.counter.3__AT1 () Bool)
(declare-fun b.counter.2__AT3 () Bool)
(declare-fun b.x__AT0 () Real)
(declare-fun b.time__AT3 () Real)
(declare-fun b.counter.3__AT2 () Bool)
(declare-fun b.time__AT2 () Real)
(declare-fun b.speed_x__AT1 () Real)
(declare-fun b.delta__AT3 () Real)
(declare-fun b.time__AT1 () Real)
(declare-fun g__AT0 () Real)
(declare-fun b.y__AT0 () Real)
(declare-fun b.delta__AT2 () Real)
(declare-fun b.EVENT.0__AT1 () Bool)
(declare-fun b.speed_y__AT1 () Real)
(declare-fun b.EVENT.0__AT3 () Bool)
(declare-fun b.x__AT2 () Real)
(declare-fun b.delta__AT1 () Real)
(declare-fun b.counter.0__AT0 () Bool)
(declare-fun b.speed_x__AT3 () Real)
(declare-fun b.EVENT.0__AT2 () Bool)
(declare-fun b.EVENT.1__AT1 () Bool)
(declare-fun b.EVENT.1__AT3 () Bool)
(declare-fun b.delta__AT0 () Real)
(declare-fun b.counter.1__AT0 () Bool)
(declare-fun b.speed_y__AT3 () Real)
(declare-fun b.EVENT.1__AT2 () Bool)
(declare-fun b.EVENT.0__AT0 () Bool)
(declare-fun b.y__AT4 () Real)
(declare-fun b.event_is_timed__AT0 () Bool)
(declare-fun b.x__AT1 () Real)
(declare-fun b.speed_y__AT0 () Real)
(declare-fun b.y__AT2 () Real)
(declare-fun b.counter.0__AT2 () Bool)
(declare-fun b.counter.3__AT3 () Bool)
(declare-fun b.counter.1__AT2 () Bool)
(declare-fun b.counter.2__AT2 () Bool)
(declare-fun b.x__AT3 () Real)
(declare-fun b.EVENT.1__AT0 () Bool)
(declare-fun b.counter.3__AT0 () Bool)
(declare-fun b.speed_x__AT2 () Real)
(declare-fun b.speed_y__AT2 () Real)
(declare-fun speed_loss__AT0 () Real)
(declare-fun b.y__AT1 () Real)
(assert (let ((.def_934 (= b.y__AT3 b.y__AT4)))
(let ((.def_935 (not .def_934)))
(let ((.def_848 (* g__AT0 b.delta__AT3)))
(let ((.def_922 (<= b.speed_y__AT3 .def_848)))
(let ((.def_923 (not .def_922)))
(let ((.def_851 (* 2.0 b.speed_y__AT3)))
(let ((.def_852 (* b.delta__AT3 .def_851)))
(let ((.def_849 (* b.delta__AT3 .def_848)))
(let ((.def_850 (* (- 1.0) .def_849)))
(let ((.def_853 (+ .def_850 .def_852)))
(let ((.def_854 (* 2.0 b.y__AT3)))
(let ((.def_856 (+ .def_854 .def_853)))
(let ((.def_914 (= .def_856 0.0 )))
(let ((.def_915 (not .def_914)))
(let ((.def_924 (or .def_915 .def_923)))
(let ((.def_115 (* 2.0 g__AT0)))
(let ((.def_901 (* .def_115 b.speed_y__AT3)))
(let ((.def_902 (* b.delta__AT3 .def_901)))
(let ((.def_135 (* g__AT0 g__AT0)))
(let ((.def_898 (* .def_135 b.delta__AT3)))
(let ((.def_899 (* b.delta__AT3 .def_898)))
(let ((.def_900 (* (- 1.0) .def_899)))
(let ((.def_903 (+ .def_900 .def_902)))
(let ((.def_883 (* .def_115 b.y__AT3)))
(let ((.def_904 (+ .def_883 .def_903)))
(let ((.def_909 (<= 0.0 .def_904)))
(let ((.def_861 (* g__AT0 b.speed_y__AT3)))
(let ((.def_906 (<= .def_898 .def_861)))
(let ((.def_910 (or .def_906 .def_909)))
(let ((.def_925 (and .def_910 .def_924)))
(let ((.def_863 (* b.speed_y__AT3 b.speed_y__AT3)))
(let ((.def_884 (+ .def_863 .def_883)))
(let ((.def_919 (<= .def_884 0.0 )))
(let ((.def_920 (not .def_919)))
(let ((.def_131 (<= 0.0 g__AT0)))
(let ((.def_132 (not .def_131)))
(let ((.def_921 (or .def_132 .def_920)))
(let ((.def_926 (or .def_921 .def_925)))
(let ((.def_888 (* g__AT0 b.y__AT3)))
(let ((.def_892 (<= .def_888 0.0 )))
(let ((.def_891 (<= .def_861 0.0 )))
(let ((.def_893 (and .def_891 .def_892)))
(let ((.def_927 (or .def_893 .def_926)))
(let ((.def_912 (<= .def_848 b.speed_y__AT3)))
(let ((.def_913 (not .def_912)))
(let ((.def_916 (or .def_913 .def_915)))
(let ((.def_905 (<= .def_904 0.0 )))
(let ((.def_907 (and .def_905 .def_906)))
(let ((.def_908 (or .def_132 .def_907)))
(let ((.def_911 (and .def_908 .def_910)))
(let ((.def_917 (and .def_911 .def_916)))
(let ((.def_895 (= .def_884 0.0 )))
(let ((.def_896 (and .def_132 .def_895)))
(let ((.def_889 (<= 0.0 .def_888)))
(let ((.def_123 (<= g__AT0 0.0 )))
(let ((.def_124 (not .def_123)))
(let ((.def_890 (and .def_124 .def_889)))
(let ((.def_894 (or .def_890 .def_893)))
(let ((.def_897 (or .def_894 .def_896)))
(let ((.def_918 (or .def_897 .def_917)))
(let ((.def_928 (and .def_918 .def_927)))
(let ((.def_885 (<= 0.0 .def_884)))
(let ((.def_886 (not .def_885)))
(let ((.def_98 (= g__AT0 0.0 )))
(let ((.def_887 (or .def_98 .def_886)))
(let ((.def_929 (or .def_887 .def_928)))
(let ((.def_876 (* b.speed_y__AT3 b.delta__AT3)))
(let ((.def_877 (+ b.y__AT3 .def_876)))
(let ((.def_878 (= .def_877 0.0 )))
(let ((.def_879 (not .def_878)))
(let ((.def_873 (* b.delta__AT3 .def_863)))
(let ((.def_868 (* b.y__AT3 b.speed_y__AT3)))
(let ((.def_874 (+ .def_868 .def_873)))
(let ((.def_875 (<= .def_874 0.0 )))
(let ((.def_880 (and .def_875 .def_879)))
(let ((.def_871 (= b.speed_y__AT3 0.0 )))
(let ((.def_869 (<= 0.0 .def_868)))
(let ((.def_864 (* b.speed_y__AT3 .def_863)))
(let ((.def_862 (* b.y__AT3 .def_861)))
(let ((.def_865 (+ .def_862 .def_864)))
(let ((.def_866 (<= .def_865 0.0 )))
(let ((.def_99 (not .def_98)))
(let ((.def_867 (or .def_99 .def_866)))
(let ((.def_870 (or .def_867 .def_869)))
(let ((.def_872 (or .def_870 .def_871)))
(let ((.def_881 (or .def_872 .def_880)))
(let ((.def_858 (<= 0.0 b.delta__AT3)))
(let ((.def_859 (not .def_858)))
(let ((.def_857 (<= 0.0 .def_856)))
(let ((.def_860 (or .def_857 .def_859)))
(let ((.def_882 (and .def_860 .def_881)))
(let ((.def_930 (and .def_882 .def_929)))
(let ((.def_829 (not b.EVENT.0__AT3)))
(let ((.def_827 (not b.EVENT.1__AT3)))
(let ((.def_845 (and .def_827 .def_829)))
(let ((.def_931 (and .def_845 .def_930)))
(let ((.def_932 (not .def_931)))
(let ((.def_936 (or .def_932 .def_935)))
(let ((.def_846 (not .def_845)))
(let ((.def_937 (or .def_846 .def_936)))
(let ((.def_487 (not b.counter.0__AT2)))
(let ((.def_475 (not b.counter.1__AT2)))
(let ((.def_837 (and .def_475 .def_487)))
(let ((.def_841 (or b.counter.3__AT2 .def_837)))
(let ((.def_838 (or b.counter.2__AT2 .def_837)))
(let ((.def_482 (not b.counter.2__AT2)))
(let ((.def_836 (or .def_475 .def_482)))
(let ((.def_839 (and .def_836 .def_838)))
(let ((.def_497 (not b.counter.3__AT2)))
(let ((.def_840 (or .def_497 .def_839)))
(let ((.def_842 (and .def_840 .def_841)))
(let ((.def_832 (<= 0.0 b.y__AT3)))
(let ((.def_67 (<= speed_loss__AT0 (/ 1 2))))
(let ((.def_64 (<= (/ 1 10) speed_loss__AT0)))
(let ((.def_68 (and .def_64 .def_67)))
(let ((.def_59 (<= g__AT0 10.0 )))
(let ((.def_58 (<= 8.0 g__AT0)))
(let ((.def_60 (and .def_58 .def_59)))
(let ((.def_69 (and .def_60 .def_68)))
(let ((.def_833 (and .def_69 .def_832)))
(let ((.def_830 (or .def_827 .def_829)))
(let ((.def_9 (not b.counter.0__AT3)))
(let ((.def_6 (not b.counter.1__AT3)))
(let ((.def_820 (or .def_6 .def_9)))
(let ((.def_824 (or b.counter.3__AT3 .def_820)))
(let ((.def_821 (or b.counter.2__AT3 .def_820)))
(let ((.def_4 (not b.counter.2__AT3)))
(let ((.def_819 (or .def_4 .def_9)))
(let ((.def_822 (and .def_819 .def_821)))
(let ((.def_14 (not b.counter.3__AT3)))
(let ((.def_823 (or .def_14 .def_822)))
(let ((.def_825 (and .def_823 .def_824)))
(let ((.def_831 (and .def_825 .def_830)))
(let ((.def_834 (and .def_831 .def_833)))
(let ((.def_612 (<= 0.0 b.delta__AT2)))
(let ((.def_583 (not b.EVENT.0__AT2)))
(let ((.def_581 (not b.EVENT.1__AT2)))
(let ((.def_599 (and .def_581 .def_583)))
(let ((.def_600 (not .def_599)))
(let ((.def_815 (or .def_600 .def_612)))
(let ((.def_816 (or b.EVENT.1__AT2 .def_815)))
(let ((.def_765 (= b.counter.0__AT3 b.counter.0__AT2)))
(let ((.def_763 (= b.counter.1__AT3 b.counter.1__AT2)))
(let ((.def_761 (= b.counter.2__AT3 b.counter.2__AT2)))
(let ((.def_760 (= b.counter.3__AT3 b.counter.3__AT2)))
(let ((.def_762 (and .def_760 .def_761)))
(let ((.def_764 (and .def_762 .def_763)))
(let ((.def_766 (and .def_764 .def_765)))
(let ((.def_812 (or .def_600 .def_766)))
(let ((.def_813 (or b.EVENT.1__AT2 .def_812)))
(let ((.def_772 (= b.x__AT2 b.x__AT3)))
(let ((.def_688 (= b.y__AT2 b.y__AT3)))
(let ((.def_806 (and .def_688 .def_772)))
(let ((.def_700 (= b.speed_x__AT2 b.speed_x__AT3)))
(let ((.def_807 (and .def_700 .def_806)))
(let ((.def_759 (= b.speed_y__AT2 b.speed_y__AT3)))
(let ((.def_808 (and .def_759 .def_807)))
(let ((.def_803 (= b.delta__AT2 0.0 )))
(let ((.def_804 (and .def_599 .def_803)))
(let ((.def_805 (not .def_804)))
(let ((.def_809 (or .def_805 .def_808)))
(let ((.def_810 (or b.EVENT.1__AT2 .def_809)))
(let ((.def_783 (= b.time__AT2 b.time__AT3)))
(let ((.def_795 (and .def_772 .def_783)))
(let ((.def_796 (and .def_688 .def_795)))
(let ((.def_797 (and .def_700 .def_796)))
(let ((.def_798 (and .def_759 .def_797)))
(let ((.def_799 (and .def_766 .def_798)))
(let ((.def_800 (or .def_581 .def_799)))
(let ((.def_786 (* (- 1.0) b.time__AT3)))
(let ((.def_789 (+ b.delta__AT2 .def_786)))
(let ((.def_790 (+ b.time__AT2 .def_789)))
(let ((.def_791 (= .def_790 0.0 )))
(let ((.def_792 (or .def_600 .def_791)))
(let ((.def_793 (or b.EVENT.1__AT2 .def_792)))
(let ((.def_784 (or .def_599 .def_783)))
(let ((.def_785 (or b.EVENT.1__AT2 .def_784)))
(let ((.def_794 (and .def_785 .def_793)))
(let ((.def_801 (and .def_794 .def_800)))
(let ((.def_779 (= .def_600 b.event_is_timed__AT3)))
(let ((.def_777 (= b.event_is_timed__AT2 .def_599)))
(let ((.def_780 (and .def_777 .def_779)))
(let ((.def_767 (and .def_759 .def_766)))
(let ((.def_722 (<= 0.0 b.speed_y__AT2)))
(let ((.def_723 (not .def_722)))
(let ((.def_721 (= b.y__AT2 0.0 )))
(let ((.def_724 (and .def_721 .def_723)))
(let ((.def_768 (or .def_724 .def_767)))
(let ((.def_736 (or .def_9 b.counter.0__AT2)))
(let ((.def_735 (or b.counter.0__AT3 .def_487)))
(let ((.def_737 (and .def_735 .def_736)))
(let ((.def_738 (and .def_6 .def_737)))
(let ((.def_739 (or b.counter.1__AT2 .def_738)))
(let ((.def_734 (or b.counter.1__AT3 .def_475)))
(let ((.def_740 (and .def_734 .def_739)))
(let ((.def_751 (and .def_4 .def_740)))
(let ((.def_752 (or b.counter.2__AT2 .def_751)))
(let ((.def_746 (and .def_6 .def_487)))
(let ((.def_747 (or b.counter.1__AT2 .def_746)))
(let ((.def_748 (and .def_734 .def_747)))
(let ((.def_749 (and b.counter.2__AT3 .def_748)))
(let ((.def_750 (or .def_482 .def_749)))
(let ((.def_753 (and .def_750 .def_752)))
(let ((.def_754 (and b.counter.3__AT3 .def_753)))
(let ((.def_755 (or b.counter.3__AT2 .def_754)))
(let ((.def_741 (and b.counter.2__AT3 .def_740)))
(let ((.def_742 (or b.counter.2__AT2 .def_741)))
(let ((.def_730 (or b.counter.1__AT3 b.counter.1__AT2)))
(let ((.def_728 (and .def_6 b.counter.0__AT3)))
(let ((.def_729 (or .def_475 .def_728)))
(let ((.def_731 (and .def_729 .def_730)))
(let ((.def_732 (and .def_4 .def_731)))
(let ((.def_733 (or .def_482 .def_732)))
(let ((.def_743 (and .def_733 .def_742)))
(let ((.def_744 (and .def_14 .def_743)))
(let ((.def_745 (or .def_497 .def_744)))
(let ((.def_756 (and .def_745 .def_755)))
(let ((.def_450 (* (- 1.0) b.speed_y__AT2)))
(let ((.def_216 (* (- 1.0) speed_loss__AT0)))
(let ((.def_217 (+ 1.0 .def_216)))
(let ((.def_726 (* .def_217 .def_450)))
(let ((.def_727 (= b.speed_y__AT3 .def_726)))
(let ((.def_757 (and .def_727 .def_756)))
(let ((.def_725 (not .def_724)))
(let ((.def_758 (or .def_725 .def_757)))
(let ((.def_769 (and .def_758 .def_768)))
(let ((.def_770 (and .def_688 .def_769)))
(let ((.def_771 (and .def_700 .def_770)))
(let ((.def_773 (and .def_771 .def_772)))
(let ((.def_774 (or .def_599 .def_773)))
(let ((.def_775 (or b.EVENT.1__AT2 .def_774)))
(let ((.def_709 (* b.delta__AT2 b.delta__AT2)))
(let ((.def_190 (* (- 1.0) g__AT0)))
(let ((.def_198 (* (/ 1 2) .def_190)))
(let ((.def_710 (* .def_198 .def_709)))
(let ((.def_712 (* (- 1.0) b.y__AT3)))
(let ((.def_715 (+ .def_712 .def_710)))
(let ((.def_630 (* b.speed_y__AT2 b.delta__AT2)))
(let ((.def_716 (+ .def_630 .def_715)))
(let ((.def_717 (+ b.y__AT2 .def_716)))
(let ((.def_718 (= .def_717 0.0 )))
(let ((.def_704 (* (- 1.0) b.speed_y__AT3)))
(let ((.def_702 (* .def_190 b.delta__AT2)))
(let ((.def_705 (+ .def_702 .def_704)))
(let ((.def_706 (+ b.speed_y__AT2 .def_705)))
(let ((.def_707 (= .def_706 0.0 )))
(let ((.def_695 (* (- 1.0) b.x__AT3)))
(let ((.def_693 (* b.speed_x__AT2 b.delta__AT2)))
(let ((.def_696 (+ .def_693 .def_695)))
(let ((.def_697 (+ b.x__AT2 .def_696)))
(let ((.def_698 (= .def_697 0.0 )))
(let ((.def_701 (and .def_698 .def_700)))
(let ((.def_708 (and .def_701 .def_707)))
(let ((.def_719 (and .def_708 .def_718)))
(let ((.def_720 (or .def_600 .def_719)))
(let ((.def_776 (and .def_720 .def_775)))
(let ((.def_781 (and .def_776 .def_780)))
(let ((.def_802 (and .def_781 .def_801)))
(let ((.def_811 (and .def_802 .def_810)))
(let ((.def_814 (and .def_811 .def_813)))
(let ((.def_817 (and .def_814 .def_816)))
(let ((.def_818 (and .def_581 .def_817)))
(let ((.def_835 (and .def_818 .def_834)))
(let ((.def_843 (and .def_835 .def_842)))
(let ((.def_689 (not .def_688)))
(let ((.def_602 (* g__AT0 b.delta__AT2)))
(let ((.def_676 (<= b.speed_y__AT2 .def_602)))
(let ((.def_677 (not .def_676)))
(let ((.def_605 (* 2.0 b.speed_y__AT2)))
(let ((.def_606 (* b.delta__AT2 .def_605)))
(let ((.def_603 (* b.delta__AT2 .def_602)))
(let ((.def_604 (* (- 1.0) .def_603)))
(let ((.def_607 (+ .def_604 .def_606)))
(let ((.def_608 (* 2.0 b.y__AT2)))
(let ((.def_610 (+ .def_608 .def_607)))
(let ((.def_668 (= .def_610 0.0 )))
(let ((.def_669 (not .def_668)))
(let ((.def_678 (or .def_669 .def_677)))
(let ((.def_655 (* .def_115 b.speed_y__AT2)))
(let ((.def_656 (* b.delta__AT2 .def_655)))
(let ((.def_652 (* .def_135 b.delta__AT2)))
(let ((.def_653 (* b.delta__AT2 .def_652)))
(let ((.def_654 (* (- 1.0) .def_653)))
(let ((.def_657 (+ .def_654 .def_656)))
(let ((.def_637 (* .def_115 b.y__AT2)))
(let ((.def_658 (+ .def_637 .def_657)))
(let ((.def_663 (<= 0.0 .def_658)))
(let ((.def_615 (* g__AT0 b.speed_y__AT2)))
(let ((.def_660 (<= .def_652 .def_615)))
(let ((.def_664 (or .def_660 .def_663)))
(let ((.def_679 (and .def_664 .def_678)))
(let ((.def_617 (* b.speed_y__AT2 b.speed_y__AT2)))
(let ((.def_638 (+ .def_617 .def_637)))
(let ((.def_673 (<= .def_638 0.0 )))
(let ((.def_674 (not .def_673)))
(let ((.def_675 (or .def_132 .def_674)))
(let ((.def_680 (or .def_675 .def_679)))
(let ((.def_642 (* g__AT0 b.y__AT2)))
(let ((.def_646 (<= .def_642 0.0 )))
(let ((.def_645 (<= .def_615 0.0 )))
(let ((.def_647 (and .def_645 .def_646)))
(let ((.def_681 (or .def_647 .def_680)))
(let ((.def_666 (<= .def_602 b.speed_y__AT2)))
(let ((.def_667 (not .def_666)))
(let ((.def_670 (or .def_667 .def_669)))
(let ((.def_659 (<= .def_658 0.0 )))
(let ((.def_661 (and .def_659 .def_660)))
(let ((.def_662 (or .def_132 .def_661)))
(let ((.def_665 (and .def_662 .def_664)))
(let ((.def_671 (and .def_665 .def_670)))
(let ((.def_649 (= .def_638 0.0 )))
(let ((.def_650 (and .def_132 .def_649)))
(let ((.def_643 (<= 0.0 .def_642)))
(let ((.def_644 (and .def_124 .def_643)))
(let ((.def_648 (or .def_644 .def_647)))
(let ((.def_651 (or .def_648 .def_650)))
(let ((.def_672 (or .def_651 .def_671)))
(let ((.def_682 (and .def_672 .def_681)))
(let ((.def_639 (<= 0.0 .def_638)))
(let ((.def_640 (not .def_639)))
(let ((.def_641 (or .def_98 .def_640)))
(let ((.def_683 (or .def_641 .def_682)))
(let ((.def_631 (+ b.y__AT2 .def_630)))
(let ((.def_632 (= .def_631 0.0 )))
(let ((.def_633 (not .def_632)))
(let ((.def_627 (* b.delta__AT2 .def_617)))
(let ((.def_622 (* b.y__AT2 b.speed_y__AT2)))
(let ((.def_628 (+ .def_622 .def_627)))
(let ((.def_629 (<= .def_628 0.0 )))
(let ((.def_634 (and .def_629 .def_633)))
(let ((.def_625 (= b.speed_y__AT2 0.0 )))
(let ((.def_623 (<= 0.0 .def_622)))
(let ((.def_618 (* b.speed_y__AT2 .def_617)))
(let ((.def_616 (* b.y__AT2 .def_615)))
(let ((.def_619 (+ .def_616 .def_618)))
(let ((.def_620 (<= .def_619 0.0 )))
(let ((.def_621 (or .def_99 .def_620)))
(let ((.def_624 (or .def_621 .def_623)))
(let ((.def_626 (or .def_624 .def_625)))
(let ((.def_635 (or .def_626 .def_634)))
(let ((.def_613 (not .def_612)))
(let ((.def_611 (<= 0.0 .def_610)))
(let ((.def_614 (or .def_611 .def_613)))
(let ((.def_636 (and .def_614 .def_635)))
(let ((.def_684 (and .def_636 .def_683)))
(let ((.def_685 (and .def_599 .def_684)))
(let ((.def_686 (not .def_685)))
(let ((.def_690 (or .def_686 .def_689)))
(let ((.def_691 (or .def_600 .def_690)))
(let ((.def_234 (not b.counter.0__AT1)))
(let ((.def_222 (not b.counter.1__AT1)))
(let ((.def_591 (and .def_222 .def_234)))
(let ((.def_595 (or b.counter.3__AT1 .def_591)))
(let ((.def_592 (or b.counter.2__AT1 .def_591)))
(let ((.def_229 (not b.counter.2__AT1)))
(let ((.def_590 (or .def_222 .def_229)))
(let ((.def_593 (and .def_590 .def_592)))
(let ((.def_244 (not b.counter.3__AT1)))
(let ((.def_594 (or .def_244 .def_593)))
(let ((.def_596 (and .def_594 .def_595)))
(let ((.def_586 (<= 0.0 b.y__AT2)))
(let ((.def_587 (and .def_69 .def_586)))
(let ((.def_584 (or .def_581 .def_583)))
(let ((.def_574 (or .def_475 .def_487)))
(let ((.def_578 (or b.counter.3__AT2 .def_574)))
(let ((.def_575 (or b.counter.2__AT2 .def_574)))
(let ((.def_573 (or .def_482 .def_487)))
(let ((.def_576 (and .def_573 .def_575)))
(let ((.def_577 (or .def_497 .def_576)))
(let ((.def_579 (and .def_577 .def_578)))
(let ((.def_585 (and .def_579 .def_584)))
(let ((.def_588 (and .def_585 .def_587)))
(let ((.def_358 (<= 0.0 b.delta__AT1)))
(let ((.def_330 (not b.EVENT.0__AT1)))
(let ((.def_328 (not b.EVENT.1__AT1)))
(let ((.def_345 (and .def_328 .def_330)))
(let ((.def_346 (not .def_345)))
(let ((.def_569 (or .def_346 .def_358)))
(let ((.def_570 (or b.EVENT.1__AT1 .def_569)))
(let ((.def_519 (= b.counter.0__AT1 b.counter.0__AT2)))
(let ((.def_517 (= b.counter.1__AT1 b.counter.1__AT2)))
(let ((.def_515 (= b.counter.2__AT1 b.counter.2__AT2)))
(let ((.def_514 (= b.counter.3__AT1 b.counter.3__AT2)))
(let ((.def_516 (and .def_514 .def_515)))
(let ((.def_518 (and .def_516 .def_517)))
(let ((.def_520 (and .def_518 .def_519)))
(let ((.def_566 (or .def_346 .def_520)))
(let ((.def_567 (or b.EVENT.1__AT1 .def_566)))
(let ((.def_526 (= b.x__AT1 b.x__AT2)))
(let ((.def_434 (= b.y__AT1 b.y__AT2)))
(let ((.def_560 (and .def_434 .def_526)))
(let ((.def_446 (= b.speed_x__AT1 b.speed_x__AT2)))
(let ((.def_561 (and .def_446 .def_560)))
(let ((.def_513 (= b.speed_y__AT1 b.speed_y__AT2)))
(let ((.def_562 (and .def_513 .def_561)))
(let ((.def_557 (= b.delta__AT1 0.0 )))
(let ((.def_558 (and .def_345 .def_557)))
(let ((.def_559 (not .def_558)))
(let ((.def_563 (or .def_559 .def_562)))
(let ((.def_564 (or b.EVENT.1__AT1 .def_563)))
(let ((.def_537 (= b.time__AT1 b.time__AT2)))
(let ((.def_549 (and .def_526 .def_537)))
(let ((.def_550 (and .def_434 .def_549)))
(let ((.def_551 (and .def_446 .def_550)))
(let ((.def_552 (and .def_513 .def_551)))
(let ((.def_553 (and .def_520 .def_552)))
(let ((.def_554 (or .def_328 .def_553)))
(let ((.def_540 (* (- 1.0) b.time__AT2)))
(let ((.def_543 (+ b.delta__AT1 .def_540)))
(let ((.def_544 (+ b.time__AT1 .def_543)))
(let ((.def_545 (= .def_544 0.0 )))
(let ((.def_546 (or .def_346 .def_545)))
(let ((.def_547 (or b.EVENT.1__AT1 .def_546)))
(let ((.def_538 (or .def_345 .def_537)))
(let ((.def_539 (or b.EVENT.1__AT1 .def_538)))
(let ((.def_548 (and .def_539 .def_547)))
(let ((.def_555 (and .def_548 .def_554)))
(let ((.def_533 (= .def_346 b.event_is_timed__AT2)))
(let ((.def_531 (= b.event_is_timed__AT1 .def_345)))
(let ((.def_534 (and .def_531 .def_533)))
(let ((.def_521 (and .def_513 .def_520)))
(let ((.def_468 (<= 0.0 b.speed_y__AT1)))
(let ((.def_469 (not .def_468)))
(let ((.def_467 (= b.y__AT1 0.0 )))
(let ((.def_470 (and .def_467 .def_469)))
(let ((.def_522 (or .def_470 .def_521)))
(let ((.def_488 (or b.counter.0__AT1 .def_487)))
(let ((.def_486 (or .def_234 b.counter.0__AT2)))
(let ((.def_489 (and .def_486 .def_488)))
(let ((.def_490 (and .def_475 .def_489)))
(let ((.def_491 (or b.counter.1__AT1 .def_490)))
(let ((.def_485 (or .def_222 b.counter.1__AT2)))
(let ((.def_492 (and .def_485 .def_491)))
(let ((.def_505 (and .def_482 .def_492)))
(let ((.def_506 (or b.counter.2__AT1 .def_505)))
(let ((.def_500 (and .def_234 .def_475)))
(let ((.def_501 (or b.counter.1__AT1 .def_500)))
(let ((.def_502 (and .def_485 .def_501)))
(let ((.def_503 (and b.counter.2__AT2 .def_502)))
(let ((.def_504 (or .def_229 .def_503)))
(let ((.def_507 (and .def_504 .def_506)))
(let ((.def_508 (and b.counter.3__AT2 .def_507)))
(let ((.def_509 (or b.counter.3__AT1 .def_508)))
(let ((.def_493 (and b.counter.2__AT2 .def_492)))
(let ((.def_494 (or b.counter.2__AT1 .def_493)))
(let ((.def_479 (or b.counter.1__AT1 b.counter.1__AT2)))
(let ((.def_477 (and .def_475 b.counter.0__AT2)))
(let ((.def_478 (or .def_222 .def_477)))
(let ((.def_480 (and .def_478 .def_479)))
(let ((.def_483 (and .def_480 .def_482)))
(let ((.def_484 (or .def_229 .def_483)))
(let ((.def_495 (and .def_484 .def_494)))
(let ((.def_498 (and .def_495 .def_497)))
(let ((.def_499 (or .def_244 .def_498)))
(let ((.def_510 (and .def_499 .def_509)))
(let ((.def_193 (* (- 1.0) b.speed_y__AT1)))
(let ((.def_472 (* .def_193 .def_217)))
(let ((.def_473 (= b.speed_y__AT2 .def_472)))
(let ((.def_511 (and .def_473 .def_510)))
(let ((.def_471 (not .def_470)))
(let ((.def_512 (or .def_471 .def_511)))
(let ((.def_523 (and .def_512 .def_522)))
(let ((.def_524 (and .def_434 .def_523)))
(let ((.def_525 (and .def_446 .def_524)))
(let ((.def_527 (and .def_525 .def_526)))
(let ((.def_528 (or .def_345 .def_527)))
(let ((.def_529 (or b.EVENT.1__AT1 .def_528)))
(let ((.def_455 (* b.delta__AT1 b.delta__AT1)))
(let ((.def_456 (* .def_198 .def_455)))
(let ((.def_458 (* (- 1.0) b.y__AT2)))
(let ((.def_461 (+ .def_458 .def_456)))
(let ((.def_376 (* b.speed_y__AT1 b.delta__AT1)))
(let ((.def_462 (+ .def_376 .def_461)))
(let ((.def_463 (+ b.y__AT1 .def_462)))
(let ((.def_464 (= .def_463 0.0 )))
(let ((.def_448 (* .def_190 b.delta__AT1)))
(let ((.def_451 (+ .def_448 .def_450)))
(let ((.def_452 (+ b.speed_y__AT1 .def_451)))
(let ((.def_453 (= .def_452 0.0 )))
(let ((.def_441 (* (- 1.0) b.x__AT2)))
(let ((.def_439 (* b.speed_x__AT1 b.delta__AT1)))
(let ((.def_442 (+ .def_439 .def_441)))
(let ((.def_443 (+ b.x__AT1 .def_442)))
(let ((.def_444 (= .def_443 0.0 )))
(let ((.def_447 (and .def_444 .def_446)))
(let ((.def_454 (and .def_447 .def_453)))
(let ((.def_465 (and .def_454 .def_464)))
(let ((.def_466 (or .def_346 .def_465)))
(let ((.def_530 (and .def_466 .def_529)))
(let ((.def_535 (and .def_530 .def_534)))
(let ((.def_556 (and .def_535 .def_555)))
(let ((.def_565 (and .def_556 .def_564)))
(let ((.def_568 (and .def_565 .def_567)))
(let ((.def_571 (and .def_568 .def_570)))
(let ((.def_572 (and .def_328 .def_571)))
(let ((.def_589 (and .def_572 .def_588)))
(let ((.def_597 (and .def_589 .def_596)))
(let ((.def_435 (not .def_434)))
(let ((.def_348 (* g__AT0 b.delta__AT1)))
(let ((.def_422 (<= b.speed_y__AT1 .def_348)))
(let ((.def_423 (not .def_422)))
(let ((.def_351 (* 2.0 b.speed_y__AT1)))
(let ((.def_352 (* b.delta__AT1 .def_351)))
(let ((.def_349 (* b.delta__AT1 .def_348)))
(let ((.def_350 (* (- 1.0) .def_349)))
(let ((.def_353 (+ .def_350 .def_352)))
(let ((.def_354 (* 2.0 b.y__AT1)))
(let ((.def_356 (+ .def_354 .def_353)))
(let ((.def_414 (= .def_356 0.0 )))
(let ((.def_415 (not .def_414)))
(let ((.def_424 (or .def_415 .def_423)))
(let ((.def_401 (* .def_115 b.speed_y__AT1)))
(let ((.def_402 (* b.delta__AT1 .def_401)))
(let ((.def_398 (* .def_135 b.delta__AT1)))
(let ((.def_399 (* b.delta__AT1 .def_398)))
(let ((.def_400 (* (- 1.0) .def_399)))
(let ((.def_403 (+ .def_400 .def_402)))
(let ((.def_383 (* .def_115 b.y__AT1)))
(let ((.def_404 (+ .def_383 .def_403)))
(let ((.def_409 (<= 0.0 .def_404)))
(let ((.def_361 (* g__AT0 b.speed_y__AT1)))
(let ((.def_406 (<= .def_398 .def_361)))
(let ((.def_410 (or .def_406 .def_409)))
(let ((.def_425 (and .def_410 .def_424)))
(let ((.def_363 (* b.speed_y__AT1 b.speed_y__AT1)))
(let ((.def_384 (+ .def_363 .def_383)))
(let ((.def_419 (<= .def_384 0.0 )))
(let ((.def_420 (not .def_419)))
(let ((.def_421 (or .def_132 .def_420)))
(let ((.def_426 (or .def_421 .def_425)))
(let ((.def_388 (* g__AT0 b.y__AT1)))
(let ((.def_392 (<= .def_388 0.0 )))
(let ((.def_391 (<= .def_361 0.0 )))
(let ((.def_393 (and .def_391 .def_392)))
(let ((.def_427 (or .def_393 .def_426)))
(let ((.def_412 (<= .def_348 b.speed_y__AT1)))
(let ((.def_413 (not .def_412)))
(let ((.def_416 (or .def_413 .def_415)))
(let ((.def_405 (<= .def_404 0.0 )))
(let ((.def_407 (and .def_405 .def_406)))
(let ((.def_408 (or .def_132 .def_407)))
(let ((.def_411 (and .def_408 .def_410)))
(let ((.def_417 (and .def_411 .def_416)))
(let ((.def_395 (= .def_384 0.0 )))
(let ((.def_396 (and .def_132 .def_395)))
(let ((.def_389 (<= 0.0 .def_388)))
(let ((.def_390 (and .def_124 .def_389)))
(let ((.def_394 (or .def_390 .def_393)))
(let ((.def_397 (or .def_394 .def_396)))
(let ((.def_418 (or .def_397 .def_417)))
(let ((.def_428 (and .def_418 .def_427)))
(let ((.def_385 (<= 0.0 .def_384)))
(let ((.def_386 (not .def_385)))
(let ((.def_387 (or .def_98 .def_386)))
(let ((.def_429 (or .def_387 .def_428)))
(let ((.def_377 (+ b.y__AT1 .def_376)))
(let ((.def_378 (= .def_377 0.0 )))
(let ((.def_379 (not .def_378)))
(let ((.def_373 (* b.delta__AT1 .def_363)))
(let ((.def_368 (* b.y__AT1 b.speed_y__AT1)))
(let ((.def_374 (+ .def_368 .def_373)))
(let ((.def_375 (<= .def_374 0.0 )))
(let ((.def_380 (and .def_375 .def_379)))
(let ((.def_371 (= b.speed_y__AT1 0.0 )))
(let ((.def_369 (<= 0.0 .def_368)))
(let ((.def_364 (* b.speed_y__AT1 .def_363)))
(let ((.def_362 (* b.y__AT1 .def_361)))
(let ((.def_365 (+ .def_362 .def_364)))
(let ((.def_366 (<= .def_365 0.0 )))
(let ((.def_367 (or .def_99 .def_366)))
(let ((.def_370 (or .def_367 .def_369)))
(let ((.def_372 (or .def_370 .def_371)))
(let ((.def_381 (or .def_372 .def_380)))
(let ((.def_359 (not .def_358)))
(let ((.def_357 (<= 0.0 .def_356)))
(let ((.def_360 (or .def_357 .def_359)))
(let ((.def_382 (and .def_360 .def_381)))
(let ((.def_430 (and .def_382 .def_429)))
(let ((.def_431 (and .def_345 .def_430)))
(let ((.def_432 (not .def_431)))
(let ((.def_436 (or .def_432 .def_435)))
(let ((.def_437 (or .def_346 .def_436)))
(let ((.def_34 (not b.counter.0__AT0)))
(let ((.def_32 (not b.counter.1__AT0)))
(let ((.def_35 (and .def_32 .def_34)))
(let ((.def_341 (or .def_35 b.counter.3__AT0)))
(let ((.def_338 (or .def_35 b.counter.2__AT0)))
(let ((.def_37 (not b.counter.2__AT0)))
(let ((.def_337 (or .def_32 .def_37)))
(let ((.def_339 (and .def_337 .def_338)))
(let ((.def_40 (not b.counter.3__AT0)))
(let ((.def_340 (or .def_40 .def_339)))
(let ((.def_342 (and .def_340 .def_341)))
(let ((.def_333 (<= 0.0 b.y__AT1)))
(let ((.def_334 (and .def_69 .def_333)))
(let ((.def_331 (or .def_328 .def_330)))
(let ((.def_321 (or .def_222 .def_234)))
(let ((.def_325 (or b.counter.3__AT1 .def_321)))
(let ((.def_322 (or b.counter.2__AT1 .def_321)))
(let ((.def_320 (or .def_229 .def_234)))
(let ((.def_323 (and .def_320 .def_322)))
(let ((.def_324 (or .def_244 .def_323)))
(let ((.def_326 (and .def_324 .def_325)))
(let ((.def_332 (and .def_326 .def_331)))
(let ((.def_335 (and .def_332 .def_334)))
(let ((.def_89 (<= 0.0 b.delta__AT0)))
(let ((.def_53 (not b.EVENT.0__AT0)))
(let ((.def_51 (not b.EVENT.1__AT0)))
(let ((.def_75 (and .def_51 .def_53)))
(let ((.def_76 (not .def_75)))
(let ((.def_316 (or .def_76 .def_89)))
(let ((.def_317 (or b.EVENT.1__AT0 .def_316)))
(let ((.def_266 (= b.counter.0__AT0 b.counter.0__AT1)))
(let ((.def_264 (= b.counter.1__AT0 b.counter.1__AT1)))
(let ((.def_262 (= b.counter.2__AT0 b.counter.2__AT1)))
(let ((.def_261 (= b.counter.3__AT0 b.counter.3__AT1)))
(let ((.def_263 (and .def_261 .def_262)))
(let ((.def_265 (and .def_263 .def_264)))
(let ((.def_267 (and .def_265 .def_266)))
(let ((.def_313 (or .def_76 .def_267)))
(let ((.def_314 (or b.EVENT.1__AT0 .def_313)))
(let ((.def_273 (= b.x__AT1 b.x__AT0)))
(let ((.def_172 (= b.y__AT0 b.y__AT1)))
(let ((.def_307 (and .def_172 .def_273)))
(let ((.def_188 (= b.speed_x__AT0 b.speed_x__AT1)))
(let ((.def_308 (and .def_188 .def_307)))
(let ((.def_260 (= b.speed_y__AT0 b.speed_y__AT1)))
(let ((.def_309 (and .def_260 .def_308)))
(let ((.def_304 (= b.delta__AT0 0.0 )))
(let ((.def_305 (and .def_75 .def_304)))
(let ((.def_306 (not .def_305)))
(let ((.def_310 (or .def_306 .def_309)))
(let ((.def_311 (or b.EVENT.1__AT0 .def_310)))
(let ((.def_284 (= b.time__AT0 b.time__AT1)))
(let ((.def_296 (and .def_273 .def_284)))
(let ((.def_297 (and .def_172 .def_296)))
(let ((.def_298 (and .def_188 .def_297)))
(let ((.def_299 (and .def_260 .def_298)))
(let ((.def_300 (and .def_267 .def_299)))
(let ((.def_301 (or .def_51 .def_300)))
(let ((.def_287 (* (- 1.0) b.time__AT1)))
(let ((.def_290 (+ b.delta__AT0 .def_287)))
(let ((.def_291 (+ b.time__AT0 .def_290)))
(let ((.def_292 (= .def_291 0.0 )))
(let ((.def_293 (or .def_76 .def_292)))
(let ((.def_294 (or b.EVENT.1__AT0 .def_293)))
(let ((.def_285 (or .def_75 .def_284)))
(let ((.def_286 (or b.EVENT.1__AT0 .def_285)))
(let ((.def_295 (and .def_286 .def_294)))
(let ((.def_302 (and .def_295 .def_301)))
(let ((.def_280 (= .def_76 b.event_is_timed__AT1)))
(let ((.def_278 (= b.event_is_timed__AT0 .def_75)))
(let ((.def_281 (and .def_278 .def_280)))
(let ((.def_268 (and .def_260 .def_267)))
(let ((.def_212 (<= 0.0 b.speed_y__AT0)))
(let ((.def_213 (not .def_212)))
(let ((.def_211 (= b.y__AT0 0.0 )))
(let ((.def_214 (and .def_211 .def_213)))
(let ((.def_269 (or .def_214 .def_268)))
(let ((.def_235 (or b.counter.0__AT0 .def_234)))
(let ((.def_233 (or .def_34 b.counter.0__AT1)))
(let ((.def_236 (and .def_233 .def_235)))
(let ((.def_237 (and .def_222 .def_236)))
(let ((.def_238 (or b.counter.1__AT0 .def_237)))
(let ((.def_232 (or .def_32 b.counter.1__AT1)))
(let ((.def_239 (and .def_232 .def_238)))
(let ((.def_252 (and .def_229 .def_239)))
(let ((.def_253 (or b.counter.2__AT0 .def_252)))
(let ((.def_247 (and .def_34 .def_222)))
(let ((.def_248 (or b.counter.1__AT0 .def_247)))
(let ((.def_249 (and .def_232 .def_248)))
(let ((.def_250 (and b.counter.2__AT1 .def_249)))
(let ((.def_251 (or .def_37 .def_250)))
(let ((.def_254 (and .def_251 .def_253)))
(let ((.def_255 (and b.counter.3__AT1 .def_254)))
(let ((.def_256 (or b.counter.3__AT0 .def_255)))
(let ((.def_240 (and b.counter.2__AT1 .def_239)))
(let ((.def_241 (or b.counter.2__AT0 .def_240)))
(let ((.def_226 (or b.counter.1__AT0 b.counter.1__AT1)))
(let ((.def_224 (and .def_222 b.counter.0__AT1)))
(let ((.def_225 (or .def_32 .def_224)))
(let ((.def_227 (and .def_225 .def_226)))
(let ((.def_230 (and .def_227 .def_229)))
(let ((.def_231 (or .def_37 .def_230)))
(let ((.def_242 (and .def_231 .def_241)))
(let ((.def_245 (and .def_242 .def_244)))
(let ((.def_246 (or .def_40 .def_245)))
(let ((.def_257 (and .def_246 .def_256)))
(let ((.def_218 (* (- 1.0) b.speed_y__AT0)))
(let ((.def_219 (* .def_217 .def_218)))
(let ((.def_220 (= b.speed_y__AT1 .def_219)))
(let ((.def_258 (and .def_220 .def_257)))
(let ((.def_215 (not .def_214)))
(let ((.def_259 (or .def_215 .def_258)))
(let ((.def_270 (and .def_259 .def_269)))
(let ((.def_271 (and .def_172 .def_270)))
(let ((.def_272 (and .def_188 .def_271)))
(let ((.def_274 (and .def_272 .def_273)))
(let ((.def_275 (or .def_75 .def_274)))
(let ((.def_276 (or b.EVENT.1__AT0 .def_275)))
(let ((.def_199 (* b.delta__AT0 b.delta__AT0)))
(let ((.def_200 (* .def_198 .def_199)))
(let ((.def_202 (* (- 1.0) b.y__AT1)))
(let ((.def_205 (+ .def_202 .def_200)))
(let ((.def_108 (* b.speed_y__AT0 b.delta__AT0)))
(let ((.def_206 (+ .def_108 .def_205)))
(let ((.def_207 (+ b.y__AT0 .def_206)))
(let ((.def_208 (= .def_207 0.0 )))
(let ((.def_191 (* b.delta__AT0 .def_190)))
(let ((.def_194 (+ .def_191 .def_193)))
(let ((.def_195 (+ b.speed_y__AT0 .def_194)))
(let ((.def_196 (= .def_195 0.0 )))
(let ((.def_180 (* (- 1.0) b.x__AT1)))
(let ((.def_184 (+ .def_180 b.x__AT0)))
(let ((.def_178 (* b.delta__AT0 b.speed_x__AT0)))
(let ((.def_185 (+ .def_178 .def_184)))
(let ((.def_186 (= .def_185 0.0 )))
(let ((.def_189 (and .def_186 .def_188)))
(let ((.def_197 (and .def_189 .def_196)))
(let ((.def_209 (and .def_197 .def_208)))
(let ((.def_210 (or .def_76 .def_209)))
(let ((.def_277 (and .def_210 .def_276)))
(let ((.def_282 (and .def_277 .def_281)))
(let ((.def_303 (and .def_282 .def_302)))
(let ((.def_312 (and .def_303 .def_311)))
(let ((.def_315 (and .def_312 .def_314)))
(let ((.def_318 (and .def_315 .def_317)))
(let ((.def_319 (and .def_51 .def_318)))
(let ((.def_336 (and .def_319 .def_335)))
(let ((.def_343 (and .def_336 .def_342)))
(let ((.def_173 (not .def_172)))
(let ((.def_78 (* g__AT0 b.delta__AT0)))
(let ((.def_160 (<= b.speed_y__AT0 .def_78)))
(let ((.def_161 (not .def_160)))
(let ((.def_82 (* 2.0 b.speed_y__AT0)))
(let ((.def_83 (* b.delta__AT0 .def_82)))
(let ((.def_79 (* b.delta__AT0 .def_78)))
(let ((.def_81 (* (- 1.0) .def_79)))
(let ((.def_84 (+ .def_81 .def_83)))
(let ((.def_85 (* 2.0 b.y__AT0)))
(let ((.def_87 (+ .def_85 .def_84)))
(let ((.def_152 (= .def_87 0.0 )))
(let ((.def_153 (not .def_152)))
(let ((.def_162 (or .def_153 .def_161)))
(let ((.def_139 (* b.speed_y__AT0 .def_115)))
(let ((.def_140 (* b.delta__AT0 .def_139)))
(let ((.def_136 (* b.delta__AT0 .def_135)))
(let ((.def_137 (* b.delta__AT0 .def_136)))
(let ((.def_138 (* (- 1.0) .def_137)))
(let ((.def_141 (+ .def_138 .def_140)))
(let ((.def_116 (* b.y__AT0 .def_115)))
(let ((.def_142 (+ .def_116 .def_141)))
(let ((.def_147 (<= 0.0 .def_142)))
(let ((.def_92 (* b.speed_y__AT0 g__AT0)))
(let ((.def_144 (<= .def_136 .def_92)))
(let ((.def_148 (or .def_144 .def_147)))
(let ((.def_163 (and .def_148 .def_162)))
(let ((.def_94 (* b.speed_y__AT0 b.speed_y__AT0)))
(let ((.def_117 (+ .def_94 .def_116)))
(let ((.def_157 (<= .def_117 0.0 )))
(let ((.def_158 (not .def_157)))
(let ((.def_159 (or .def_132 .def_158)))
(let ((.def_164 (or .def_159 .def_163)))
(let ((.def_121 (* b.y__AT0 g__AT0)))
(let ((.def_127 (<= .def_121 0.0 )))
(let ((.def_126 (<= .def_92 0.0 )))
(let ((.def_128 (and .def_126 .def_127)))
(let ((.def_165 (or .def_128 .def_164)))
(let ((.def_150 (<= .def_78 b.speed_y__AT0)))
(let ((.def_151 (not .def_150)))
(let ((.def_154 (or .def_151 .def_153)))
(let ((.def_143 (<= .def_142 0.0 )))
(let ((.def_145 (and .def_143 .def_144)))
(let ((.def_146 (or .def_132 .def_145)))
(let ((.def_149 (and .def_146 .def_148)))
(let ((.def_155 (and .def_149 .def_154)))
(let ((.def_130 (= .def_117 0.0 )))
(let ((.def_133 (and .def_130 .def_132)))
(let ((.def_122 (<= 0.0 .def_121)))
(let ((.def_125 (and .def_122 .def_124)))
(let ((.def_129 (or .def_125 .def_128)))
(let ((.def_134 (or .def_129 .def_133)))
(let ((.def_156 (or .def_134 .def_155)))
(let ((.def_166 (and .def_156 .def_165)))
(let ((.def_118 (<= 0.0 .def_117)))
(let ((.def_119 (not .def_118)))
(let ((.def_120 (or .def_98 .def_119)))
(let ((.def_167 (or .def_120 .def_166)))
(let ((.def_109 (+ b.y__AT0 .def_108)))
(let ((.def_110 (= .def_109 0.0 )))
(let ((.def_111 (not .def_110)))
(let ((.def_105 (* b.delta__AT0 .def_94)))
(let ((.def_101 (* b.y__AT0 b.speed_y__AT0)))
(let ((.def_106 (+ .def_101 .def_105)))
(let ((.def_107 (<= .def_106 0.0 )))
(let ((.def_112 (and .def_107 .def_111)))
(let ((.def_102 (<= 0.0 .def_101)))
(let ((.def_95 (* b.speed_y__AT0 .def_94)))
(let ((.def_93 (* b.y__AT0 .def_92)))
(let ((.def_96 (+ .def_93 .def_95)))
(let ((.def_97 (<= .def_96 0.0 )))
(let ((.def_100 (or .def_97 .def_99)))
(let ((.def_103 (or .def_100 .def_102)))
(let ((.def_29 (= b.speed_y__AT0 0.0 )))
(let ((.def_104 (or .def_29 .def_103)))
(let ((.def_113 (or .def_104 .def_112)))
(let ((.def_90 (not .def_89)))
(let ((.def_88 (<= 0.0 .def_87)))
(let ((.def_91 (or .def_88 .def_90)))
(let ((.def_114 (and .def_91 .def_113)))
(let ((.def_168 (and .def_114 .def_167)))
(let ((.def_169 (and .def_75 .def_168)))
(let ((.def_170 (not .def_169)))
(let ((.def_174 (or .def_170 .def_173)))
(let ((.def_175 (or .def_76 .def_174)))
(let ((.def_70 (<= 0.0 b.y__AT0)))
(let ((.def_71 (and .def_69 .def_70)))
(let ((.def_54 (or .def_51 .def_53)))
(let ((.def_44 (or .def_32 .def_34)))
(let ((.def_48 (or b.counter.3__AT0 .def_44)))
(let ((.def_45 (or b.counter.2__AT0 .def_44)))
(let ((.def_43 (or .def_34 .def_37)))
(let ((.def_46 (and .def_43 .def_45)))
(let ((.def_47 (or .def_40 .def_46)))
(let ((.def_49 (and .def_47 .def_48)))
(let ((.def_55 (and .def_49 .def_54)))
(let ((.def_72 (and .def_55 .def_71)))
(let ((.def_38 (and .def_35 .def_37)))
(let ((.def_41 (and .def_38 .def_40)))
(let ((.def_26 (= b.y__AT0 10.0 )))
(let ((.def_21 (= b.time__AT0 0.0 )))
(let ((.def_23 (and .def_21 b.event_is_timed__AT0)))
(let ((.def_27 (and .def_23 .def_26)))
(let ((.def_30 (and .def_27 .def_29)))
(let ((.def_42 (and .def_30 .def_41)))
(let ((.def_73 (and .def_42 .def_72)))
(let ((.def_10 (and .def_6 .def_9)))
(let ((.def_16 (or .def_10 b.counter.3__AT3)))
(let ((.def_11 (or b.counter.2__AT3 .def_10)))
(let ((.def_7 (or .def_4 .def_6)))
(let ((.def_12 (and .def_7 .def_11)))
(let ((.def_15 (or .def_12 .def_14)))
(let ((.def_17 (and .def_15 .def_16)))
(let ((.def_18 (not .def_17)))
(let ((.def_74 (and .def_18 .def_73)))
(let ((.def_176 (and .def_74 .def_175)))
(let ((.def_344 (and .def_176 .def_343)))
(let ((.def_438 (and .def_344 .def_437)))
(let ((.def_598 (and .def_438 .def_597)))
(let ((.def_692 (and .def_598 .def_691)))
(let ((.def_844 (and .def_692 .def_843)))
(let ((.def_938 (and .def_844 .def_937)))
.def_938)))))))))))))))))))))))))))))))))))))))))))))))))))))))))))))))))))))))))))))))))))))))))))))))))))))))))))))))))))))))))))))))))))))))))))))))))))))))))))))))))))))))))))))))))))))))))))))))))))))))))))))))))))))))))))))))))))))))))))))))))))))))))))))))))))))))))))))))))))))))))))))))))))))))))))))))))))))))))))))))))))))))))))))))))))))))))))))))))))))))))))))))))))))))))))))))))))))))))))))))))))))))))))))))))))))))))))))))))))))))))))))))))))))))))))))))))))))))))))))))))))))))))))))))))))))))))))))))))))))))))))))))))))))))))))))))))))))))))))))))))))))))))))))))))))))))))))))))))))))))))))))))))))))))))))))))))))))))))))))))))))))))))))))))))))))))))))))))))))))))))))))))))))))))))))))))))))))))))))))))))))))))))))))))))))))))))))))))))))))))))))))))))))))))))))))))))))))))))))))))))))))))))))))))))))))))))))))))))))))))))))))))))))))
(check-sat)
(exit)
